analyze/results_flowersnark/final_miplib_symretope_if_extended_generating_set_cpx_v802__settings_final_nosym_norestarts__2__neos-1109824.mps.gz.sol
solution status: optimal solution found
objective value:                                  378
C0012                                               1 	(obj:17)
C0020                                               1 	(obj:23)
C0246                                               1 	(obj:10)
C0344                                               1 	(obj:10)
C0385                                               1 	(obj:19)
C0486                                               1 	(obj:30)
C0605                                               1 	(obj:6)
C0685                                               1 	(obj:33)
C0770                                               1 	(obj:22)
C0811                                               1 	(obj:5)
C0823                                               1 	(obj:25)
C0837                                               1 	(obj:28)
C0883                                               1 	(obj:22)
C0901                                               1 	(obj:0)
C0917                                               1 	(obj:9)
C0946                                               1 	(obj:30)
C0953                                               1 	(obj:3)
C1011                                               1 	(obj:43)
C1053                                               1 	(obj:3)
C1154                                               1 	(obj:5)
C1423                                               1 	(obj:13)
C1482                                               1 	(obj:5)
C1502                                               1 	(obj:17)
