analyze/results_flowersnark/final_miplib_symretope_if_extended_generating_set_cpx_v802__settings_final_nosym_norestarts__2__neos-1109824.mps.gz.out
FILENAME:   /home/mcs001/s132664/testsets/IP/miplib2010/neos-1109824.mps.gz
SETTINGS:   settings_final_nosym_norestarts
TIMELIMIT:  7200
OUTPUTNAME: final_miplib_symretope_if_extended_generating_set_cpx_v802__settings_final_nosym_norestarts__2__
BINNAME:    bin/sbcs.linux.x86_64.gnu.opt.cpx
BASENAME:   neos-1109824.mps.gz
SEED:       2
@01 /home/mcs001/s132664/testsets/IP/miplib2010/neos-1109824.mps.gz ===========
@02 neos-1109824.mps.gz
@03 1686656480
SCIP version 8.0.2 [precision: 8 byte] [memory: block] [mode: optimized] [LP solver: CPLEX 20.1.0.0] [GitHash: 5f0473c]
Copyright (C) 2002-2022 Konrad-Zuse-Zentrum fuer Informationstechnik Berlin (ZIB)

Symretope propagation methods - (c) Jasper van Doornmalen, Christopher Hojny.
[GitHash: 2fd0484]

reading parameter file <../settings/settings_final_nosym_norestarts.set> ...

Changed settings:
limits/time = 7200
limits/restarts = 0
misc/usesymmetry = 0
randomization/randomseedshift = 2
constraints/orbisack/sepafreq = -1
constraints/symresack/sepafreq = -1
propagating/symmetry/detectsubgroups = FALSE
propagating/symmetry/usesymretopes = FALSE
propagating/symmetry/relabelsymretopes = 0
propagating/symmetry/ofsymcomptiming = 0
constraints/symretope/sepafreq = -1
constraints/symretope/peek = FALSE


solving problem ...

original problem has 1520 variables (1520 bin, 0 int, 0 impl, 0 cont) and 28979 constraints
presolving:
(round 1, exhaustive) 0 del vars, 19000 del conss, 0 add conss, 0 chg bounds, 0 chg sides, 0 chg coeffs, 0 upgd conss, 0 impls, 783 clqs
(round 2, exhaustive) 0 del vars, 19000 del conss, 0 add conss, 0 chg bounds, 0 chg sides, 0 chg coeffs, 9903 upgd conss, 0 impls, 783 clqs
   (1.0s) probing: 1000/1520 (65.8%) - 0 fixings, 0 aggregations, 51828 implications, 0 bound changes
   (1.0s) probing: 1001/1520 (65.9%) - 0 fixings, 0 aggregations, 51883 implications, 0 bound changes
   (1.0s) probing aborted: 1000/1000 successive useless probings
presolving (3 rounds: 3 fast, 3 medium, 3 exhaustive):
 0 deleted vars, 19000 deleted constraints, 0 added constraints, 0 tightened bounds, 0 added holes, 0 changed sides, 0 changed coefficients
 0 implications, 52666 cliques
presolved problem has 1520 variables (1520 bin, 0 int, 0 impl, 0 cont) and 9979 constraints
    783 constraints of type <setppc>
     76 constraints of type <linear>
   9120 constraints of type <logicor>
transformed objective value is always integral (scale: 1)
Presolving Time: 1.02

 time | node  | left  |LP iter|LP it/n|mem/heur|mdpt |vars |cons |rows |cuts |sepa|confs|strbr|  dualbound   | primalbound  |  gap   | compl. 
  1.2s|     1 |     0 |    38 |     - |    69M |   0 |1520 |  10k|9979 |   0 |  0 |  34 |   0 | 2.780000e+02 |      --      |    Inf | unknown
o 1.3s|     1 |     0 |   363 |     - |feaspump|   0 |1520 |  10k|9979 |   0 |  0 |  34 |   0 | 2.780000e+02 | 4.530000e+02 |  62.95%| unknown
  1.5s|     1 |     0 |   405 |     - |    70M |   0 |1520 |  10k|  10k|  29 |  1 |  34 |   0 | 2.780000e+02 | 4.530000e+02 |  62.95%| unknown
  1.6s|     1 |     0 |   482 |     - |    71M |   0 |1520 |  10k|  10k|  53 |  2 |  34 |   0 | 3.279667e+02 | 4.530000e+02 |  38.12%| unknown
  1.8s|     1 |     0 |   498 |     - |    73M |   0 |1520 |  10k|  10k|  69 |  3 |  34 |   0 | 3.426000e+02 | 4.530000e+02 |  32.22%| unknown
  2.0s|     1 |     0 |   522 |     - |    75M |   0 |1520 |  10k|  10k|  78 |  4 |  34 |   0 | 3.460000e+02 | 4.530000e+02 |  30.92%| unknown
  2.3s|     1 |     0 |   530 |     - |    78M |   0 |1520 |  10k|  10k|  87 |  5 |  34 |   0 | 3.460000e+02 | 4.530000e+02 |  30.92%| unknown
  2.4s|     1 |     0 |   538 |     - |    79M |   0 |1520 |  10k|  10k|  97 |  6 |  34 |   0 | 3.460000e+02 | 4.530000e+02 |  30.92%| unknown
  2.6s|     1 |     0 |   553 |     - |    80M |   0 |1520 |  10k|  10k| 107 |  7 |  34 |   0 | 3.460000e+02 | 4.530000e+02 |  30.92%| unknown
  2.8s|     1 |     0 |   560 |     - |    81M |   0 |1520 |  10k|  10k| 112 |  8 |  34 |   0 | 3.460000e+02 | 4.530000e+02 |  30.92%| unknown
  3.0s|     1 |     0 |   571 |     - |    83M |   0 |1520 |  10k|  10k| 119 |  9 |  34 |   0 | 3.460000e+02 | 4.530000e+02 |  30.92%| unknown
  3.1s|     1 |     0 |   586 |     - |    85M |   0 |1520 |  10k|  10k| 127 | 10 |  34 |   0 | 3.460000e+02 | 4.530000e+02 |  30.92%| unknown
  3.1s|     1 |     0 |   598 |     - |    86M |   0 |1520 |  10k|  10k| 135 | 11 |  34 |   0 | 3.460000e+02 | 4.530000e+02 |  30.92%| unknown
  3.2s|     1 |     0 |   612 |     - |    87M |   0 |1520 |  10k|  10k| 140 | 12 |  34 |   0 | 3.460000e+02 | 4.530000e+02 |  30.92%| unknown
  3.2s|     1 |     0 |   618 |     - |    88M |   0 |1520 |9999 |  10k| 145 | 13 |  34 |   0 | 3.460000e+02 | 4.530000e+02 |  30.92%| unknown
 time | node  | left  |LP iter|LP it/n|mem/heur|mdpt |vars |cons |rows |cuts |sepa|confs|strbr|  dualbound   | primalbound  |  gap   | compl. 
  3.2s|     1 |     0 |   625 |     - |    89M |   0 |1520 |9999 |  10k| 150 | 14 |  34 |   0 | 3.460000e+02 | 4.530000e+02 |  30.92%| unknown
  3.3s|     1 |     0 |   640 |     - |    90M |   0 |1520 |9999 |  10k| 153 | 15 |  34 |   0 | 3.462500e+02 | 4.530000e+02 |  30.83%| unknown
  3.3s|     1 |     0 |   648 |     - |    91M |   0 |1520 |9999 |  10k| 156 | 16 |  34 |   0 | 3.463750e+02 | 4.530000e+02 |  30.78%| unknown
  3.4s|     1 |     0 |   683 |     - |    92M |   0 |1520 |9999 |  10k| 161 | 17 |  34 |   0 | 3.472148e+02 | 4.530000e+02 |  30.47%| unknown
  3.5s|     1 |     0 |   687 |     - |    96M |   0 |1520 |9999 |  10k| 162 | 18 |  34 |   0 | 3.472148e+02 | 4.530000e+02 |  30.47%| unknown
  3.5s|     1 |     0 |   692 |     - |    97M |   0 |1520 |9998 |  10k| 164 | 19 |  34 |   0 | 3.481141e+02 | 4.530000e+02 |  30.13%| unknown
  3.5s|     1 |     0 |   703 |     - |    98M |   0 |1520 |9998 |  10k| 166 | 20 |  34 |   0 | 3.481141e+02 | 4.530000e+02 |  30.13%| unknown
  3.6s|     1 |     0 |   715 |     - |    98M |   0 |1520 |9998 |  10k| 173 | 21 |  34 |   0 | 3.481141e+02 | 4.530000e+02 |  30.13%| unknown
  3.6s|     1 |     0 |   717 |     - |    98M |   0 |1520 |9998 |  10k| 174 | 23 |  34 |   0 | 3.481141e+02 | 4.530000e+02 |  30.13%| unknown
  3.7s|     1 |     0 |   725 |     - |    98M |   0 |1520 |9998 |  10k| 176 | 24 |  34 |   0 | 3.487333e+02 | 4.530000e+02 |  29.90%| unknown
  3.7s|     1 |     0 |   729 |     - |    99M |   0 |1520 |9998 |  10k| 178 | 25 |  34 |   0 | 3.488462e+02 | 4.530000e+02 |  29.86%| unknown
  3.7s|     1 |     0 |   730 |     - |    99M |   0 |1520 |9998 |  10k| 179 | 26 |  34 |   0 | 3.488462e+02 | 4.530000e+02 |  29.86%| unknown
  5.2s|     1 |     2 |  2329 |     - |   101M |   0 |1520 |  10k|  10k| 179 | 28 |  50 |  26 | 3.494211e+02 | 4.530000e+02 |  29.64%| unknown
* 6.1s|     7 |     6 |  2443 | 285.7 |strongbr|   6 |1520 |  10k|  10k| 179 |  1 |  50 |  98 | 3.501111e+02 | 4.150000e+02 |  18.53%| unknown
* 6.1s|     7 |     6 |  2443 | 285.7 |strongbr|   6 |1520 |  10k|  10k| 179 |  1 |  50 |  99 | 3.501111e+02 | 4.140000e+02 |  18.25%| unknown
 time | node  | left  |LP iter|LP it/n|mem/heur|mdpt |vars |cons |rows |cuts |sepa|confs|strbr|  dualbound   | primalbound  |  gap   | compl. 
* 7.3s|    15 |    10 |  2627 | 135.6 |strongbr|   8 |1520 |  10k|  10k| 179 |  4 | 115 | 200 | 3.517353e+02 | 4.070000e+02 |  15.71%|   3.81%
* 8.3s|    21 |     9 |  2833 | 105.2 |strongbr|   8 |1520 |9970 |  10k| 179 |  1 | 149 | 289 | 3.532222e+02 | 3.940000e+02 |  11.54%|   9.70%
* 8.6s|    23 |     9 |  2889 |  98.2 |strongbr|   8 |1520 |9261 |  10k| 179 |  3 | 154 | 311 | 3.532222e+02 | 3.900000e+02 |  10.41%|  11.35%
* 8.6s|    23 |     9 |  2899 |  98.6 |strongbr|   8 |1520 |9261 |  10k| 179 |  5 | 154 | 312 | 3.532222e+02 | 3.880000e+02 |   9.85%|  11.35%
*14.3s|    46 |    14 |  3925 |  71.0 |    LP  |  10 |1520 |8238 |  10k| 236 |  6 | 602 | 746 | 3.558800e+02 | 3.860000e+02 |   8.46%|  16.50%
*17.6s|    69 |    11 |  4745 |  59.1 |strongbr|  14 |1520 |7749 |  10k| 289 |  1 | 782 | 919 | 3.583333e+02 | 3.780000e+02 |   5.49%|  19.79%
 22.7s|   100 |    18 |  5838 |  51.6 |   137M |  14 |1520 |6766 |   0 | 385 |  0 |1041 |1245 | 3.621667e+02 | 3.780000e+02 |   4.37%|  25.09%
 30.1s|   200 |    18 |  8237 |  37.7 |   145M |  24 |1520 |6903 |  10k| 535 |  4 |1416 |1608 | 3.630000e+02 | 3.780000e+02 |   4.13%|  42.33%
 35.1s|   300 |    28 | 10482 |  32.6 |   146M |  27 |1520 |6878 |  10k| 660 |  7 |1592 |1870 | 3.640000e+02 | 3.780000e+02 |   3.85%|  50.27%
 39.0s|   400 |    34 | 12393 |  29.2 |   147M |  27 |1520 |6924 |  10k| 724 |  0 |1711 |2039 | 3.641806e+02 | 3.780000e+02 |   3.79%|  50.35%
 41.6s|   500 |    34 | 14313 |  27.2 |   152M |  40 |1520 |6959 |  10k| 793 |  1 |1783 |2185 | 3.643333e+02 | 3.780000e+02 |   3.75%|  50.41%
 44.0s|   600 |    30 | 15428 |  24.5 |   152M |  40 |1520 |7003 |  10k| 819 |  3 |1908 |2326 | 3.643333e+02 | 3.780000e+02 |   3.75%|  51.16%
 46.9s|   700 |    32 | 17246 |  23.6 |   153M |  40 |1520 |6984 |  10k| 840 |  1 |2035 |2488 | 3.666667e+02 | 3.780000e+02 |   3.09%|  52.19%
 48.9s|   800 |    28 | 18277 |  22.0 |   154M |  44 |1520 |6942 |  10k| 882 |  0 |2090 |2551 | 3.666667e+02 | 3.780000e+02 |   3.09%|  59.21%
 51.6s|   900 |    24 | 19708 |  21.1 |   154M |  44 |1520 |6931 |  10k| 926 |  1 |2176 |2665 | 3.672000e+02 | 3.780000e+02 |   2.94%|  65.08%
 time | node  | left  |LP iter|LP it/n|mem/heur|mdpt |vars |cons |rows |cuts |sepa|confs|strbr|  dualbound   | primalbound  |  gap   | compl. 
 52.8s|  1000 |    20 | 20718 |  20.0 |   154M |  44 |1520 |6952 |  10k| 941 |  2 |2232 |2706 | 3.680000e+02 | 3.780000e+02 |   2.72%|  65.59%
 55.0s|  1100 |    18 | 21934 |  19.3 |   155M |  49 |1520 |6915 |  10k| 984 |  0 |2327 |2809 | 3.702778e+02 | 3.780000e+02 |   2.09%|  70.12%
 57.2s|  1200 |    10 | 23033 |  18.6 |   156M |  49 |1520 |6930 |  10k|1006 |  1 |2443 |2917 | 3.715000e+02 | 3.780000e+02 |   1.75%|  76.85%
 58.8s|  1300 |     6 | 24103 |  18.0 |   156M |  49 |1520 |6958 |  10k|1012 |  1 |2517 |2981 | 3.722500e+02 | 3.780000e+02 |   1.54%|  77.20%

SCIP Status        : problem is solved [optimal solution found]
Solving Time (sec) : 59.56
Solving Nodes      : 1372
Primal Bound       : +3.78000000000000e+02 (10 solutions)
Dual Bound         : +3.78000000000000e+02
Gap                : 0.00 %
SCIP Status        : problem is solved [optimal solution found]
Total Time         :      59.67
  solving          :      59.56
  presolving       :       1.02 (included in solving)
  reading          :       0.11
  copying          :       0.22 (14 #copies) (minimal 0.02, maximal 0.02, average 0.02)
Original Problem   :
  Problem name     : neos-1109824
  Variables        : 1520 (1520 binary, 0 integer, 0 implicit integer, 0 continuous)
  Constraints      : 28979 initial, 28979 maximal
  Objective        : minimize, 1512 non-zeros (abs.min = 3, abs.max = 83)
Presolved Problem  :
  Problem name     : t_neos-1109824
  Variables        : 1520 (1520 binary, 0 integer, 0 implicit integer, 0 continuous)
  Constraints      : 9979 initial, 10092 maximal
  Objective        : minimize, 1512 non-zeros (abs.min = 3, abs.max = 83)
  Nonzeros         : 33288 constraint, 50200 clique table
Presolvers         :   ExecTime  SetupTime  Calls  FixedVars   AggrVars   ChgTypes  ChgBounds   AddHoles    DelCons    AddCons   ChgSides   ChgCoefs
  boundshift       :       0.00       0.00      0          0          0          0          0          0          0          0          0          0
  convertinttobin  :       0.00       0.00      0          0          0          0          0          0          0          0          0          0
  domcol           :       0.01       0.00      1          0          0          0          0          0          0          0          0          0
  dualagg          :       0.00       0.00      0          0          0          0          0          0          0          0          0          0
  dualcomp         :       0.00       0.00      0          0          0          0          0          0          0          0          0          0
  dualinfer        :       0.00       0.00      0          0          0          0          0          0          0          0          0          0
  dualsparsify     :       0.01       0.00      1          0          0          0          0          0          0          0          0          0
  gateextraction   :       0.01       0.00      1          0          0          0          0          0          0          0          0          0
  implics          :       0.00       0.00      3          0          0          0          0          0          0          0          0          0
  inttobinary      :       0.00       0.00      0          0          0          0          0          0          0          0          0          0
  qpkktref         :       0.00       0.00      0          0          0          0          0          0          0          0          0          0
  redvub           :       0.00       0.00      0          0          0          0          0          0          0          0          0          0
  sparsify         :       0.04       0.00      1          0          0          0          0          0          0          0          0          0
  stuffing         :       0.00       0.00      0          0          0          0          0          0          0          0          0          0
  trivial          :       0.00       0.00      3          0          0          0          0          0          0          0          0          0
  tworowbnd        :       0.00       0.00      0          0          0          0          0          0          0          0          0          0
  dualfix          :       0.00       0.00      3          0          0          0          0          0          0          0          0          0
  genvbounds       :       0.00       0.00      0          0          0          0          0          0          0          0          0          0
  probing          :       0.85       0.00      1          0          0          0          0          0          0          0          0          0
  pseudoobj        :       0.00       0.00      0          0          0          0          0          0          0          0          0          0
  symmetry         :       0.00       0.00      0          0          0          0          0          0          0          0          0          0
  vbounds          :       0.00       0.00      1          0          0          0          0          0          0          0          0          0
  knapsack         :       0.00       0.00      0          0          0          0          0          0          0          0          0          0
  setppc           :       0.00       0.00      3          0          0          0          0          0          0          0          0          0
  linear           :       0.07       0.01      6          0          0          0          0          0      19000          0          0          0
  logicor          :       0.01       0.00      3          0          0          0          0          0          0          0          0          0
  benders          :       0.00       0.00      0          0          0          0          0          0          0          0          0          0
  components       :       0.00       0.00      1          0          0          0          0          0          0          0          0          0
  root node        :          -          -      -        497          -          -        497          -          -          -          -          -
Constraints        :     Number  MaxNumber  #Separate #Propagate    #EnfoLP    #EnfoRelax  #EnfoPS    #Check   #ResProp    Cutoffs    DomReds       Cuts    Applied      Conss   Children
  benderslp        :          0          0          0          0       1489          0          0        217          0          0          0          0          0          0          0
  integral         :          0          0          0          0       1489          0          0        217          0          4       2540          0          0       1932       1378
  knapsack         :          0+        13          0      16234          0          0          0          0        438          2        788          0          0          0          0
  setppc           :        783+       834         26      22473          1          0          0        212      41560         54      16032          0          0          0          0
  linear           :         76+        77         26      22419          1          0          0         12      11262        197      14988          0          0          0          0
  logicor          :       9120+      9224         26      11791          1          0          0         11       2379         99       2336          1          0          0          0
  benders          :          0          0          0          0          1          0          0         12          0          0          0          0          0          0          0
  countsols        :          0          0          0          0          1          0          0         12          0          0          0          0          0          0          0
  components       :          0          0          0          0          0          0          0          0          0          0          0          0          0          0          0
Constraint Timings :  TotalTime  SetupTime   Separate  Propagate     EnfoLP     EnfoPS     EnfoRelax   Check    ResProp    SB-Prop
  benderslp        :       0.00       0.00       0.00       0.00       0.00       0.00       0.00       0.00       0.00       0.00
  integral         :      26.74       0.00       0.00       0.00      26.74       0.00       0.00       0.00       0.00       0.00
  knapsack         :       0.03       0.00       0.00       0.02       0.00       0.00       0.00       0.00       0.00       0.01
  setppc           :       0.33       0.00       0.00       0.12       0.00       0.00       0.00       0.00       0.01       0.19
  linear           :       0.53       0.01       0.04       0.25       0.00       0.00       0.00       0.00       0.03       0.20
  logicor          :       0.79       0.00       0.05       0.47       0.00       0.00       0.00       0.01       0.01       0.25
  benders          :       0.00       0.00       0.00       0.00       0.00       0.00       0.00       0.00       0.00       0.00
  countsols        :       0.00       0.00       0.00       0.00       0.00       0.00       0.00       0.00       0.00       0.00
  components       :       0.00       0.00       0.00       0.00       0.00       0.00       0.00       0.00       0.00       0.00
Propagators        : #Propagate   #ResProp    Cutoffs    DomReds
  dualfix          :          1          0          0          0
  genvbounds       :          0          0          0          0
  nlobbt           :          0          0          0          0
  obbt             :          0          0          0          0
  probing          :          0          0          0          0
  pseudoobj        :       8102          0          0          0
  redcost          :       4989          0          0      50588
  rootredcost      :          8          0          0        496
  symmetry         :          0          0          0          0
  vbounds          :       6956          0          0          0
Propagator Timings :  TotalTime  SetupTime   Presolve  Propagate    ResProp    SB-Prop
  dualfix          :       0.00       0.00       0.00       0.00       0.00       0.00
  genvbounds       :       0.01       0.00       0.00       0.00       0.00       0.00
  nlobbt           :       0.00       0.00       0.00       0.00       0.00       0.00
  obbt             :       0.00       0.00       0.00       0.00       0.00       0.00
  probing          :       0.85       0.00       0.85       0.00       0.00       0.00
  pseudoobj        :       0.03       0.00       0.00       0.03       0.00       0.00
  redcost          :       0.39       0.00       0.00       0.39       0.00       0.00
  rootredcost      :       0.01       0.00       0.00       0.01       0.00       0.00
  symmetry         :       0.00       0.00       0.00       0.00       0.00       0.00
  vbounds          :       0.02       0.00       0.00       0.01       0.00       0.00
Conflict Analysis  :       Time      Calls    Success    DomReds  Conflicts   Literals    Reconvs ReconvLits   Dualrays   Nonzeros   LP Iters   (pool size: [10000,10000])
  propagation      :       0.04        254        249          -        846      128.2         46       46.4          -          -          -
  infeasible LP    :       0.02         18         18          -         84       79.2          4       79.2         17      106.5          0
  bound exceed. LP :       5.13       1456        640          -       2884       87.7         27       49.0          0        0.0       8386
  strong branching :       0.00          0          0          -          0        0.0          0        0.0          -          -          0
  pseudo solution  :       0.00          0          0          -          0        0.0          0        0.0          -          -          -
  applied globally :       0.35          -          -          0       2508       48.6          -          -         17          -          -
  applied locally  :          -          -          -          0         16      283.1          -          -          0          -          -
Separators         :   ExecTime  SetupTime      Calls  RootCalls    Cutoffs    DomReds  FoundCuts ViaPoolAdd  DirectAdd    Applied ViaPoolApp  DirectApp      Conss
  cut pool         :       0.46          -        616         51          -          -       3827       3142          -          -          -          -          -    (maximal pool size:       1427)
  aggregation      :       0.41       0.00        242         26          0          0          0          0          0          0          0          0          0
  > cmir           :          -          -          -          -          -          -          -          0          0          0          0          0          -
  > flowcover      :          -          -          -          -          -          -          -          0          0          0          0          0          -
  > knapsackcover  :          -          -          -          -          -          -          -          0          0          0          0          0          -
  cgmip            :       0.00       0.00          0          0          0          0          0          0          0          0          0          0          0
  clique           :       0.07       0.00         26         26          0          0         63         70          0         47         47          0          0
  closecuts        :       0.00       0.00          0          0          0          0          0          0          0          0          0          0          0
  convexproj       :       0.00       0.00          0          0          0          0          0          0          0          0          0          0          0
  disjunctive      :       0.00       0.00          0          0          0          0          0          0          0          0          0          0          0
  eccuts           :       0.00       0.00          0          0          0          0          0          0          0          0          0          0          0
  gauge            :       0.00       0.00          0          0          0          0          0          0          0          0          0          0          0
  gomory           :       8.32       0.00        153         10          0          0       3757       2232        346        499        491          8          0
  > gomorymi       :          -          -          -          -          -          -          -        408        173         50         46          4          -
  > strongcg       :          -          -          -          -          -          -          -       1824        173        449        445          4          -
  impliedbounds    :       0.43       0.00        242         26          0          0          0          0          0          0          0          0          0
  interminor       :       0.00       0.00          0          0          0          0          0          0          0          0          0          0          0
  intobj           :       0.00       0.00          0          0          0          0          0          0          0          0          0          0          0
  mcf              :       0.00       0.00          1          1          0          0          0          0          0          0          0          0          0
  minor            :       0.00       0.00          0          0          0          0          0          0          0          0          0          0          0
  mixing           :       0.00       0.00          0          0          0          0          0          0          0          0          0          0          0
  oddcycle         :       0.00       0.00          0          0          0          0          0          0          0          0          0          0          0
  rapidlearning    :       0.05       0.00          0          0          0          0          0          0          0          0          0          0          0
  rlt              :       0.00       0.00         10         10          0          0          0          0          0          0          0          0          0
  zerohalf         :       0.27       0.00        163         20          0          0        382        840         29        482        465         17          0
Cutselectors       :   ExecTime  SetupTime      Calls  RootCalls   Selected     Forced   Filtered  RootSelec   RootForc   RootFilt 
  hybrid           :       0.01       0.00        306         25       1028          0       2490        179          0        239
Pricers            :   ExecTime  SetupTime      Calls       Vars
  problem variables:       0.00          -          0          0
Branching Rules    :   ExecTime  SetupTime   BranchLP  BranchExt   BranchPS    Cutoffs    DomReds       Cuts      Conss   Children
  allfullstrong    :       0.00       0.00          0          0          0          0          0          0          0          0
  cloud            :       0.00       0.00          0          0          0          0          0          0          0          0
  distribution     :       0.00       0.00          0          0          0          0          0          0          0          0
  fullstrong       :       0.00       0.00          0          0          0          0          0          0          0          0
  inference        :       0.00       0.00          0          0          0          0          0          0          0          0
  leastinf         :       0.00       0.00          0          0          0          0          0          0          0          0
  lookahead        :       0.00       0.00          0          0          0          0          0          0          0          0
  mostinf          :       0.00       0.00          0          0          0          0          0          0          0          0
  multaggr         :       0.00       0.00          0          0          0          0          0          0          0          0
  nodereopt        :       0.00       0.00          0          0          0          0          0          0          0          0
  pscost           :       0.00       0.00          0          0          0          0          0          0          0          0
  random           :       0.00       0.00          0          0          0          0          0          0          0          0
  relpscost        :      26.74       0.00       1488          0          0          4       2540          0       2133       1378
  vanillafullstrong:       0.00       0.00          0          0          0          0          0          0          0          0
Primal Heuristics  :   ExecTime  SetupTime      Calls      Found       Best
  LP solutions     :       0.00          -          -          1          1
  relax solutions  :       0.00          -          -          0          0
  pseudo solutions :       0.00          -          -          0          0
  strong branching :       0.03          -          -          7          7
  actconsdiving    :       0.00       0.00          0          0          0
  adaptivediving   :       0.00       0.00          0          0          0
  alns             :       0.20       0.00          5          0          0
  bound            :       0.00       0.00          0          0          0
  clique           :       0.04       0.00          1          0          0
  coefdiving       :       0.00       0.00          0          0          0
  completesol      :       0.00       0.00          0          0          0
  conflictdiving   :       0.06       0.00          1          0          0
  crossover        :       0.08       0.00          2          1          0
  dins             :       0.00       0.00          0          0          0
  distributiondivin:       0.05       0.00          0          0          0
  dps              :       0.00       0.00          0          0          0
  dualval          :       0.00       0.00          0          0          0
  farkasdiving     :       0.99       0.00          1          0          0
  feaspump         :       0.07       0.00          1          1          1
  fixandinfer      :       0.00       0.00          0          0          0
  fracdiving       :       0.00       0.00          0          0          0
  gins             :       0.01       0.00          0          0          0
  guideddiving     :       0.00       0.00          0          0          0
  indicator        :       0.00       0.00          0          0          0
  intdiving        :       0.00       0.00          0          0          0
  intshifting      :       0.00       0.00          0          0          0
  linesearchdiving :       0.00       0.00          0          0          0
  localbranching   :       0.00       0.00          0          0          0
  locks            :       0.02       0.00          1          0          0
  lpface           :       1.09       0.00          2          0          0
  mpec             :       0.00       0.00          0          0          0
  multistart       :       0.00       0.00          0          0          0
  mutation         :       0.00       0.00          0          0          0
  nlpdiving        :       0.00       0.00          0          0          0
  objpscostdiving  :       0.00       0.00          0          0          0
  octane           :       0.00       0.00          0          0          0
  ofins            :       0.00       0.00          0          0          0
  oneopt           :       0.01       0.00          7          0          0
  padm             :       0.00       0.00          0          0          0
  proximity        :       0.00       0.00          0          0          0
  pscostdiving     :       0.00       0.00          0          0          0
  randrounding     :       0.12       0.00        217          0          0
  rens             :       0.04       0.00          1          0          0
  reoptsols        :       0.00       0.00          0          0          0
  repair           :       0.00       0.00          0          0          0
  rins             :       0.22       0.00          6          0          0
  rootsoldiving    :       0.00       0.00          0          0          0
  rounding         :       0.24       0.00        552          0          0
  shiftandpropagate:       0.01       0.00          1          0          0
  shifting         :       0.22       0.00        260          0          0
  simplerounding   :       0.00       0.00          0          0          0
  subnlp           :       0.00       0.00          0          0          0
  trivial          :       0.00       0.00          2          0          0
  trivialnegation  :       0.00       0.00          0          0          0
  trustregion      :       0.00       0.00          0          0          0
  trysol           :       0.00       0.00          0          0          0
  twoopt           :       0.00       0.00          0          0          0
  undercover       :       0.00       0.00          0          0          0
  vbounds          :       0.04       0.00          1          0          0
  veclendiving     :       0.00       0.00          0          0          0
  zeroobj          :       0.00       0.00          0          0          0
  zirounding       :       0.03       0.00        689          0          0
  other solutions  :          -          -          -          0          -
LP                 :       Time      Calls Iterations  Iter/call   Iter/sec  Time-0-It Calls-0-It    ItLimit
  primal LP        :       1.14        143          0       0.00       0.00       1.14        143
  dual LP          :      11.40       3924      22879       9.12    2006.39       1.01       1416
  lex dual LP      :       0.00          0          0       0.00          -
  barrier LP       :       0.00          0          0       0.00          -       0.00          0
  resolve instable :       0.00          0          0       0.00          -
  diving/probing LP:       2.55        314       1925       6.13     755.57
  strong branching :      14.86       2995      48060      16.05    3234.84          -          -        408
    (at root node) :          -         26       1204      46.31          -
  conflict analysis:       3.65        915       8386       9.17    2296.93
B&B Tree           :
  number of runs   :          1
  nodes            :       1372 (689 internal, 683 leaves)
  feasible leaves  :          1
  infeas. leaves   :        103
  objective leaves :        579
  nodes (total)    :       1372 (689 internal, 683 leaves)
  nodes left       :          0
  max depth        :         49
  max depth (total):         49
  backtracks       :        200 (14.6%)
  early backtracks :          0 (0.0%)
  nodes exc. ref.  :          0 (0.0%)
  delayed cutoffs  :          0
  repropagations   :        501 (485 domain reductions, 0 cutoffs)
  avg switch length:       3.85
  switching time   :       1.54
Root Node          :
  First LP value   : +2.78000000000000e+02
  First LP Iters   :         37 (1433.61 Iter/sec)
  First LP Time    :       0.03
  Final Dual Bound : +3.49421052631579e+02
  Final Root Iters :        729
  Root LP Estimate : +3.66793226015605e+02
Solution           :
  Solutions found  :         10 (9 improvements)
  First Solution   : +4.53000000000000e+02   (in run 1, after 1 nodes, 1.30 seconds, depth 0, found by <feaspump>)
  Gap First Sol.   :      62.95 %
  Gap Last Sol.    :       5.49 %
  Primal Bound     : +3.78000000000000e+02   (in run 1, after 69 nodes, 17.63 seconds, depth 8, found by <relaxation>)
  Dual Bound       : +3.78000000000000e+02
  Gap              :       0.00 %
Integrals          :      Total       Avg%
  primal-dual      :     501.03       8.41
  primal-ref       :          -          - (not evaluated)
  dual-ref         :          -          - (not evaluated)
written solution information to file <results/final_miplib_symretope_if_extended_generating_set_cpx_v802__settings_final_nosym_norestarts__2__neos-1109824.mps.gz.sol>
@04 1686656539
